param:  BDCs:    g   p:=
        Cankaya_FBC 100000 500
        Yenimahalle_FBC 100000 500
        Altindag_MBC 360000 900
        Cankaya_MBC 360000 800
        Etimesgut_MBC 360000 110
        Golbasi_MBC 360000 400
        Kecioren_MBC 360000 1400
        Mamak_MBC 360000 700
        Polatli_MBC 360000 100
        Pursaklar_MBC 360000 100
        Sincan_MBC 360000 700
        Yenimahalle_MBC 360000 2000 ;

param:  Hospitals: e   b    h:=
        1 5 10 5000
        2 6 12 6000
        3 7 14 7500
        4 8 16 15000
        5 6 12 3000
        6 10 20 4000
        7 10 20 25000
        8 12 24 7000
        9 10 20 40000
        10 12 24 27000
        11 20 40 8000
        12 15 30 18000
        13 15 30 4000
        14 25 50 4000
        15 35 70 4000
        16 40 80 6000
        17 30 60 12000 ;

set Nodes := 
1 2 3 4 5 6 7 8 9 10 11 12 13 14 15 16 17
Cankaya_FBC
Yenimahalle_FBC
Altindag_MBC
Cankaya_MBC
Etimesgut_MBC
Golbasi_MBC
Kecioren_MBC
Mamak_MBC
Polatli_MBC
Pursaklar_MBC
Sincan_MBC
Yenimahalle_MBC ;
